Using license file /home/benedond/gurobi.lic
Using gurobi.env file
Set parameter Threads to value 1
Academic license - for non-commercial use only
Changed value of parameter TimeLimit to 300.0
   Prev: inf  Min: 0.0  Max: inf  Default: inf
Gurobi Optimizer version 9.0.1 build v9.0.1rc0 (linux64)
Optimize a model with 605 rows, 529 columns and 2473 nonzeros
Model fingerprint: 0x0fdff6be
Variable types: 30 continuous, 499 integer (499 binary)
Coefficient statistics:
  Matrix range     [2e-01, 5e+02]
  Objective range  [2e-02, 6e-01]
  Bounds range     [1e+00, 1e+00]
  RHS range        [1e+00, 7e+02]
Found heuristic solution: objective 4.7755278
Presolve removed 60 rows and 36 columns
Presolve time: 0.02s
Presolved: 545 rows, 493 columns, 3898 nonzeros
Variable types: 29 continuous, 464 integer (464 binary)

Root relaxation: objective 2.442406e+00, 539 iterations, 0.01 seconds

    Nodes    |    Current Node    |     Objective Bounds      |     Work
 Expl Unexpl |  Obj  Depth IntInf | Incumbent    BestBd   Gap | It/Node Time

     0     0    2.44241    0   58    4.77553    2.44241  48.9%     -    0s
H    0     0                       4.5450417    2.44241  46.3%     -    0s
H    0     0                       3.9000833    2.44241  37.4%     -    0s
H    0     0                       3.4770694    2.44241  29.8%     -    0s
     0     0    2.58770    0   73    3.47707    2.58770  25.6%     -    0s
     0     0    2.59097    0   74    3.47707    2.59097  25.5%     -    0s
     0     0    2.66094    0   72    3.47707    2.66094  23.5%     -    0s
     0     0    2.66403    0   68    3.47707    2.66403  23.4%     -    0s
     0     0    2.71399    0   78    3.47707    2.71399  21.9%     -    0s
H    0     0                       3.4660694    2.71399  21.7%     -    0s
H    0     0                       3.4451667    2.71399  21.2%     -    0s
     0     0    2.73124    0   69    3.44517    2.73124  20.7%     -    0s
     0     0    2.73902    0   84    3.44517    2.73902  20.5%     -    0s
     0     0    2.74300    0   98    3.44517    2.74300  20.4%     -    0s
     0     0    2.74487    0   84    3.44517    2.74487  20.3%     -    0s
     0     0    2.74569    0  102    3.44517    2.74569  20.3%     -    0s
     0     0    2.74606    0   99    3.44517    2.74606  20.3%     -    0s
     0     0    2.74606    0   99    3.44517    2.74606  20.3%     -    0s
     0     0    2.78098    0   96    3.44517    2.78098  19.3%     -    0s
     0     0    2.80168    0   75    3.44517    2.80168  18.7%     -    0s
     0     0    2.80621    0   85    3.44517    2.80621  18.5%     -    0s
     0     0    2.80746    0   86    3.44517    2.80746  18.5%     -    0s
     0     0    2.81689    0   86    3.44517    2.81689  18.2%     -    0s
     0     0    2.82040    0   99    3.44517    2.82040  18.1%     -    0s
     0     0    2.82426    0   93    3.44517    2.82426  18.0%     -    0s
     0     0    2.82493    0  108    3.44517    2.82493  18.0%     -    0s
     0     0    2.82564    0  110    3.44517    2.82564  18.0%     -    0s
     0     0    2.82568    0  106    3.44517    2.82568  18.0%     -    0s
     0     0    2.83282    0   94    3.44517    2.83282  17.8%     -    0s
     0     0    2.83419    0   78    3.44517    2.83419  17.7%     -    0s
     0     0    2.83495    0   93    3.44517    2.83495  17.7%     -    0s
     0     0    2.83497    0   97    3.44517    2.83497  17.7%     -    0s
     0     0    2.83684    0   97    3.44517    2.83684  17.7%     -    0s
     0     0    2.83697    0  106    3.44517    2.83697  17.7%     -    0s
     0     0    2.83930    0  104    3.44517    2.83930  17.6%     -    0s
     0     0    2.83993    0   98    3.44517    2.83993  17.6%     -    0s
     0     0    2.84036    0  106    3.44517    2.84036  17.6%     -    0s
     0     0    2.84116    0   82    3.44517    2.84116  17.5%     -    0s
H    0     0                       3.2927639    2.84116  13.7%     -    0s
H    0     0                       3.1812222    2.84116  10.7%     -    0s
     0     0    2.84196    0  111    3.18122    2.84196  10.7%     -    0s
     0     0    2.84210    0  118    3.18122    2.84210  10.7%     -    0s
     0     0    2.84352    0   86    3.18122    2.84352  10.6%     -    0s
     0     0    2.84426    0  110    3.18122    2.84426  10.6%     -    0s
     0     0    2.84440    0   90    3.18122    2.84440  10.6%     -    0s
     0     0    2.84520    0   98    3.18122    2.84520  10.6%     -    0s
     0     0    2.84520    0   98    3.18122    2.84520  10.6%     -    0s
     0     2    2.85820    0   87    3.18122    2.85820  10.2%     -    0s
H   59    20                       3.1685000    2.97672  6.05%  58.2    1s
*   74    26              19       3.1558056    2.98566  5.39%  55.2    1s
*   99    20              18       3.1465417    3.07661  2.22%  48.6    1s
*  128     2              16       3.1430834    3.14062  0.08%  44.0    1s

Cutting planes:
  Gomory: 3
  Cover: 21
  Implied bound: 5
  Clique: 10
  MIR: 59
  StrongCG: 1
  GUB cover: 1
  RLT: 4
  Relax-and-lift: 127

Explored 131 nodes (8349 simplex iterations) in 1.31 seconds
Thread count was 1 (of 4 available processors)

Solution count 10: 3.14308 3.14654 3.15581 ... 4.54504

Optimal solution found (tolerance 1.00e-04)
Best objective 3.143083358929e+00, best bound 3.143083358929e+00, gap 0.0000%
